echo

start w11_b3lyp_cc-pvtz_energy

memory stack 8000 mb heap 100 mb global 8000 mb noverify

permanent_dir .
scratch_dir /tmp

geometry units angstrom
  O      -2.08119667    -2.26673485    -0.52122025
  H      -2.87105167    -2.78737932    -0.69063304
  H      -2.37048203    -1.48052425     0.00808991
  O       0.02632908     2.46420106     1.43136415
  H      -0.79872021     2.51272310     0.91403477
  H       0.03392860     1.56479884     1.79448727
  O      -0.10639962    -1.18952211    -2.30993496
  H      -0.83122588    -1.60450407    -1.81428466
  H       0.70146823    -1.55647816    -1.91492397
  O      -2.53660296    -0.13426118     1.00652753
  H      -1.76448175    -0.10778780     1.59108568
  H      -2.48980443     0.70013958     0.50025834
  O       0.15122048    -2.65188991     1.10644184
  H      -0.65274681    -2.72021834     0.55885102
  H       0.88417011    -2.67183587     0.46397298
  O       2.13888494    -2.13440481    -0.78805319
  H       2.93049477    -2.60943049    -1.05525823
  H       2.44486586    -1.33305502    -0.29341074
  O       2.64879913     0.01324964     0.70328241
  H       2.54120429     0.87044707     0.25037000
  H       1.93995918     0.00174018     1.36408007
  O       0.14754784    -0.31377914     2.31635550
  H       0.20756983    -0.48066858     3.26302056
  H       0.15063221    -1.21915761     1.88819098
  O       1.91413653     2.45179984    -0.46204184
  H       2.44614529     3.25118653    -0.50821174
  H       1.25730486     2.59531756     0.26467692
  O      -0.24381434     1.54060642    -2.15574462
  H       0.59881902     1.83276745    -1.77386015
  H      -0.16451956     0.56552049    -2.25620710
  O      -2.06702886     2.20623002    -0.40395822
  H      -2.70789898     2.81776225    -0.77656938
  H      -1.43251084     1.96924165    -1.14177635
end

basis "ao basis" spherical noprint
  * library cc-pvtz
end

scf
  direct
  singlet
  rhf
  thresh 1e-7
  maxiter 100
  vectors input atomic output w11_scf_cc-pvtz.movecs
  noprint "final vectors analysis" "final vector symmetries"
end

task scf energy ignore

dft
  direct
  xc b3lyp
  grid fine
  iterations 100
  vectors input w11_scf_cc-pvtz.movecs
  noprint "final vectors analysis" "final vector symmetries"
end

task dft energy

