echo

start w12_b3lyp_cc-pvtz_energy

memory stack 8000 mb heap 100 mb global 8000 mb noverify

permanent_dir .
scratch_dir /tmp

geometry units angstrom
  O       1.79799517    -2.87189360    -0.91374020
  O       0.96730604    -2.75911220     1.62798799
  O       1.65380168    -0.07006642    -1.01974524
  O       1.02235809     0.07175530     1.65572815
  O      -1.02223258     0.06714841    -1.65231025
  O      -1.65303657    -0.06953734     1.02328922
  O      -1.79714075    -2.87225082     0.91489225
  O      -0.96714604    -2.76268933    -1.62695366
  O      -0.91046484     2.86984708    -1.80205865
  O       1.62976535     2.75963881    -0.96492508
  O       0.90962365     2.87584732     1.79706100
  O      -1.63064745     2.76057720     0.96075175
  H       1.58187452    -2.90533857     0.05372043
  H       2.45880812    -3.55319457    -1.06640225
  H      -1.58013630    -2.90956053    -0.05228132
  H      -2.45728026    -3.55363054     1.07010099
  H       0.05632428     2.90394112    -1.58314254
  H      -1.06231290     3.55393270    -2.46019459
  H      -1.56680088     2.89107809    -0.00131897
  H      -1.92210192     1.83983329     1.06475175
  H       1.34757079     0.06744042     0.72858318
  H       1.14627218     0.98941003     1.95482520
  H      -1.14676057     0.98295160    -1.95675717
  H      -1.34650335     0.06810117    -0.72482129
  H       0.72810518    -0.06186014    -1.34872142
  H       1.95057642    -0.98833069    -1.14558354
  H      -0.72703573    -0.06575415     1.35156867
  H      -1.95270073    -0.98745311     1.14464678
  H       1.56681459     2.89291882    -0.00316599
  H       1.92433921     1.83958829    -1.06611724
  H      -0.00511757    -2.89477284    -1.56679971
  H      -1.07087869    -1.84139535    -1.91693517
  H      -0.05748186     2.90789148     1.57927484
  H       1.06103881     3.56065162     2.45452965
  H       0.00532585    -2.89179177     1.56768173
  H       1.07022772    -1.83898762     1.92167783
end

basis "ao basis" spherical noprint
  * library cc-pvtz
end

scf
  direct
  singlet
  rhf
  thresh 1e-7
  maxiter 100
  vectors input atomic output w12_scf_cc-pvtz.movecs
  noprint "final vectors analysis" "final vector symmetries"
end

task scf energy ignore

dft
  direct
  xc b3lyp
  grid fine
  iterations 100
  vectors input w12_scf_cc-pvtz.movecs
  noprint "final vectors analysis" "final vector symmetries"
end

task dft energy

